(set-info :smt-lib-version 2.6)
(set-logic AUFBVFPDTNIRA)
(set-info :source |
Generated by: AdaCore
Generated on: 2020-03-06
Generator: SPARK
Application: Program verification for Ada
Target solver: Z3
|)
(set-info :license "https://creativecommons.org/licenses/by/4.0/")
(set-info :category "industrial")
(set-info :status unknown)
;;; generated by SMT-LIB2 driver
;;; SMT-LIB2 driver: bit-vectors, common part
;;; SMT-LIB2: integer arithmetic
(declare-sort string 0)

(declare-datatypes () ((tuple0 (Tuple0))))
(declare-sort us_private 0)

(declare-fun private__bool_eq (us_private us_private) Bool)

(declare-const us_null_ext__ us_private)

(declare-sort us_type_of_heap 0)

(declare-datatypes ()
((us_type_of_heap__ref
 (us_type_of_heap__refqtmk (us_type_of_heap__content us_type_of_heap)))))
(declare-sort us_image 0)

(declare-datatypes () ((int__ref (int__refqtmk (int__content Int)))))
(declare-datatypes () ((bool__ref (bool__refqtmk (bool__content Bool)))))
(declare-datatypes ()
((us_fixed__ref (us_fixed__refqtmk (us_fixed__content Int)))))
(declare-datatypes () ((real__ref (real__refqtmk (real__content Real)))))
(declare-datatypes ()
((us_private__ref (us_private__refqtmk (us_private__content us_private)))))
(define-fun int__ref___projection ((a int__ref)) Int (int__content a))

(define-fun us_fixed__ref___projection ((a us_fixed__ref)) Int (us_fixed__content
                                                               a))

(define-fun bool__ref___projection ((a bool__ref)) Bool (bool__content a))

(define-fun real__ref___projection ((a real__ref)) Real (real__content a))

(define-fun us_private__ref___projection ((a us_private__ref)) us_private 
  (us_private__content a))

(declare-sort natural 0)

(declare-fun naturalqtint (natural) Int)

;; natural'axiom
  (assert
  (forall ((i natural))
  (and (<= 0 (naturalqtint i)) (<= (naturalqtint i) 2147483647))))

(define-fun in_range ((x Int)) Bool (and (<= 0 x) (<= x 2147483647)))

(declare-fun attr__ATTRIBUTE_IMAGE (Int) us_image)

(declare-fun attr__ATTRIBUTE_VALUE__pre_check (us_image) Bool)

(declare-fun attr__ATTRIBUTE_VALUE (us_image) Int)

(declare-fun user_eq (natural natural) Bool)

(declare-const dummy natural)

(declare-datatypes ()
((natural__ref (natural__refqtmk (natural__content natural)))))
(define-fun natural__ref_natural__content__projection ((a natural__ref)) natural 
  (natural__content a))

(define-fun dynamic_invariant ((temp___expr_39 Int) (temp___is_init_35 Bool)
  (temp___skip_constant_36 Bool) (temp___do_toplevel_37 Bool)
  (temp___do_typ_inv_38 Bool)) Bool (=>
                                    (or (= temp___is_init_35 true)
                                    (<= 0 2147483647)) (in_range
                                    temp___expr_39)))

(define-fun to_rep ((x natural)) Int (naturalqtint x))

(declare-fun of_rep (Int) natural)

;; inversion_axiom
  (assert
  (forall ((x natural)) (! (= (of_rep (to_rep x)) x) :pattern ((to_rep x)) )))

;; range_axiom
  (assert
  (forall ((x natural)) (! (in_range (to_rep x)) :pattern ((to_rep x)) )))

;; coerce_axiom
  (assert
  (forall ((x Int))
  (! (=> (in_range x) (= (to_rep (of_rep x)) x)) :pattern ((to_rep
                                                           (of_rep x))) )))

(declare-datatypes ()
((map__ref (map__refqtmk (map__content (Array Int natural))))))
(declare-fun slide ((Array Int natural) Int Int) (Array Int natural))

;; slide_eq
  (assert
  (forall ((a (Array Int natural)))
  (forall ((first Int))
  (! (= (slide a first first) a) :pattern ((slide a first first)) ))))

;; slide_def
  (assert
  (forall ((a (Array Int natural)))
  (forall ((old_first Int))
  (forall ((new_first Int))
  (forall ((i Int))
  (! (= (select (slide a old_first new_first) i) (select a (- i (- new_first old_first)))) :pattern ((select 
  (slide a old_first new_first) i)) ))))))

(define-fun bool_eq ((a (Array Int natural)) (a__first Int) (a__last Int)
  (b (Array Int natural)) (b__first Int)
  (b__last Int)) Bool (ite (and
                           (ite (<= a__first a__last)
                           (and (<= b__first b__last)
                           (= (- a__last a__first) (- b__last b__first)))
                           (< b__last b__first))
                           (forall ((temp___idx_154 Int))
                           (=>
                           (and (<= a__first temp___idx_154)
                           (<= temp___idx_154 a__last))
                           (= (to_rep (select a temp___idx_154)) (to_rep
                                                                 (select b (+ (- b__first a__first) temp___idx_154)))))))
                      true false))

;; bool_eq_rev
  (assert
  (forall ((a (Array Int natural)) (b (Array Int natural)))
  (forall ((a__first Int) (a__last Int) (b__first Int) (b__last Int))
  (=> (= (bool_eq b b__first b__last a a__first a__last) true)
  (and
  (ite (<= a__first a__last)
  (and (<= b__first b__last) (= (- a__last a__first) (- b__last b__first)))
  (< b__last b__first))
  (forall ((temp___idx_154 Int))
  (=> (and (<= a__first temp___idx_154) (<= temp___idx_154 a__last))
  (= (to_rep (select a temp___idx_154)) (to_rep
                                        (select b (+ (- b__first a__first) temp___idx_154)))))))))))

(declare-const dummy1 (Array Int natural))

(declare-const value__size Int)

(declare-const object__size Int)

(declare-const component__size Int)

(declare-const alignment Int)

;; value__size_axiom
  (assert (<= 0 value__size))

;; object__size_axiom
  (assert (<= 0 object__size))

;; component__size_axiom
  (assert (<= 0 component__size))

;; alignment_axiom
  (assert (<= 0 alignment))

(declare-fun user_eq1 ((Array Int natural) (Array Int natural)) Bool)

(declare-datatypes ()
((us_split_fields
 (us_split_fieldsqtmk
 (rec__declare_iterable__container__content (Array Int natural))))))
(define-fun us_split_fields_rec__declare_iterable__container__content__projection ((a us_split_fields)) (Array Int natural) 
  (rec__declare_iterable__container__content a))

(declare-datatypes ()
((us_split_fields__ref
 (us_split_fields__refqtmk (us_split_fields__content us_split_fields)))))
(define-fun us_split_fields__ref___split_fields__content__projection ((a us_split_fields__ref)) us_split_fields 
  (us_split_fields__content a))

(declare-datatypes ()
((us_rep (us_repqtmk (us_split_fields1 us_split_fields)))))
(define-fun us_rep___split_fields__projection ((a us_rep)) us_split_fields 
  (us_split_fields1 a))

(define-fun bool_eq1 ((a us_rep)
  (b us_rep)) Bool (ite (= (bool_eq
                           (rec__declare_iterable__container__content
                           (us_split_fields1 a)) 1 100
                           (rec__declare_iterable__container__content
                           (us_split_fields1 b)) 1 100) true)
                   true false))

(declare-const value__size1 Int)

(declare-const object__size1 Int)

(declare-const alignment1 Int)

;; value__size_axiom
  (assert (<= 0 value__size1))

;; object__size_axiom
  (assert (<= 0 object__size1))

;; alignment_axiom
  (assert (<= 0 alignment1))

(declare-const declare_iterable__container__content__first__bit Int)

(declare-const declare_iterable__container__content__last__bit Int)

(declare-const declare_iterable__container__content__position Int)

;; declare_iterable__container__content__first__bit_axiom
  (assert (<= 0 declare_iterable__container__content__first__bit))

;; declare_iterable__container__content__last__bit_axiom
  (assert
  (< declare_iterable__container__content__first__bit declare_iterable__container__content__last__bit))

;; declare_iterable__container__content__position_axiom
  (assert (<= 0 declare_iterable__container__content__position))

(declare-fun user_eq2 (us_rep us_rep) Bool)

(declare-const dummy2 us_rep)

(declare-datatypes ()
((container__ref (container__refqtmk (container__content us_rep)))))
(define-fun container__ref_container__content__projection ((a container__ref)) us_rep 
  (container__content a))

(declare-fun has_element (us_rep Int) Bool)

(declare-fun has_element__function_guard (Bool us_rep Int) Bool)

(declare-sort cursor 0)

(declare-fun cursorqtint (cursor) Int)

;; cursor'axiom
  (assert
  (forall ((i cursor)) (and (<= 0 (cursorqtint i)) (<= (cursorqtint i) 100))))

(define-fun in_range1 ((x Int)) Bool (and (<= 0 x) (<= x 100)))

(declare-fun attr__ATTRIBUTE_IMAGE1 (Int) us_image)

(declare-fun attr__ATTRIBUTE_VALUE__pre_check1 (us_image) Bool)

(declare-fun attr__ATTRIBUTE_VALUE1 (us_image) Int)

(declare-fun user_eq3 (cursor cursor) Bool)

(declare-const dummy3 cursor)

(declare-datatypes ()
((cursor__ref (cursor__refqtmk (cursor__content cursor)))))
(define-fun cursor__ref_cursor__content__projection ((a cursor__ref)) cursor 
  (cursor__content a))

(define-fun dynamic_invariant1 ((temp___expr_165 Int)
  (temp___is_init_161 Bool) (temp___skip_constant_162 Bool)
  (temp___do_toplevel_163 Bool)
  (temp___do_typ_inv_164 Bool)) Bool (=>
                                     (or (= temp___is_init_161 true)
                                     (<= 0 100)) (in_range1 temp___expr_165)))

(declare-sort valid_cursor 0)

(declare-fun valid_cursorqtint (valid_cursor) Int)

;; valid_cursor'axiom
  (assert
  (forall ((i valid_cursor))
  (and (<= 1 (valid_cursorqtint i)) (<= (valid_cursorqtint i) 100))))

(define-fun in_range2 ((x Int)) Bool (and (<= 1 x) (<= x 100)))

(declare-fun attr__ATTRIBUTE_IMAGE2 (Int) us_image)

(declare-fun attr__ATTRIBUTE_VALUE__pre_check2 (us_image) Bool)

(declare-fun attr__ATTRIBUTE_VALUE2 (us_image) Int)

(declare-fun user_eq4 (valid_cursor valid_cursor) Bool)

(declare-const dummy4 valid_cursor)

(declare-datatypes ()
((valid_cursor__ref
 (valid_cursor__refqtmk (valid_cursor__content valid_cursor)))))
(define-fun valid_cursor__ref_valid_cursor__content__projection ((a valid_cursor__ref)) valid_cursor 
  (valid_cursor__content a))

;; has_element__post_axiom
  (assert true)

;; has_element__def_axiom
  (assert
  (forall ((x us_rep))
  (forall ((c Int))
  (! (= (= (has_element x c) true) (in_range2 c)) :pattern ((has_element x c)) ))))

(declare-const attr__ATTRIBUTE_ADDRESS Int)

(declare-const c Int)

(declare-const attr__ATTRIBUTE_ADDRESS1 Int)

(declare-const e Int)

(declare-const attr__ATTRIBUTE_ADDRESS2 Int)

(define-fun dynamic_invariant2 ((temp___expr_172 Int)
  (temp___is_init_168 Bool) (temp___skip_constant_169 Bool)
  (temp___do_toplevel_170 Bool)
  (temp___do_typ_inv_171 Bool)) Bool (=>
                                     (or (= temp___is_init_168 true)
                                     (<= 1 100)) (in_range2 temp___expr_172)))

(declare-const x__split_fields (Array Int natural))

;; Assume
  (assert true)

;; Assume
  (assert (dynamic_invariant1 c true false true true))

;; Assume
  (assert (dynamic_invariant e true false true true))

;; H
  (assert
  (forall ((x__split_fields1 (Array Int natural)))
  (has_element__function_guard
  (has_element (us_repqtmk (us_split_fieldsqtmk x__split_fields1)) c)
  (us_repqtmk (us_split_fieldsqtmk x__split_fields1)) c)))

;; Assume
  (assert
  (= (has_element (us_repqtmk (us_split_fieldsqtmk x__split_fields)) c) true))

(declare-const o natural)

;; Ensures
  (assert (= (to_rep o) e))

(assert
;; defqtvc
 ;; File "declare_iterable.ads", line 23, characters 0-0
  (not (<= 1 c)))
(check-sat)

(exit)
